     Program PWSCF v.6.6 starts on  7Nov2020 at 21:47: 7

     R & G space division:  proc/nbgrp/npool/nimage =       8
     Fft bands division:     nmany     =       1
     Reading input from scf.in

     Current dimensions of program PWSCF are:
     Max number of different atomic species (ntypx) = 10
     Max number of k-points (npk) =  40000
     Max angular momentum in pseudopotentials (lmaxx) =  3
     file C.pbe-n-kjpaw_psl.1.0.0.UPF: wavefunction(s)  2S 2P renormalized

     Subspace diagonalization in iterative solution of the eigenvalue problem:
     a serial algorithm will be used

     Found symmetry operation: I + ( -0.5000 -0.5000  0.0000)
     This is a supercell, fractional translations are disabled
     Message from routine setup:
     using ibrav=0 with symmetry is DISCOURAGED, use correct ibrav instead

     bravais-lattice index     =            0
     lattice parameter (alat)  =       9.3266  a.u.
     unit-cell volume          =     618.1883 (a.u.)^3
     number of atoms/cell      =            8
     number of atomic types    =            1
     number of electrons       =        32.00
     number of Kohn-Sham states=           20
     kinetic-energy cutoff     =      40.1868  Ry
     charge density cutoff     =     361.6810  Ry
     convergence threshold     =      1.0E-08
     mixing beta               =       0.5000
     number of iterations used =            8  plain     mixing
     Exchange-correlation= SLA PW PBX PBC
                           (   1   4   3   4   0   0   0)

     celldm(1)=   9.326630  celldm(2)=   0.000000  celldm(3)=   0.000000
     celldm(4)=   0.000000  celldm(5)=   0.000000  celldm(6)=   0.000000

     crystal axes: (cart. coord. in units of alat)
               a(1) = (   1.000000   0.000000   0.000000 )
               a(2) = (  -0.500000   0.866025   0.000000 )
               a(3) = (   0.000000   0.000000   0.879865 )

     reciprocal axes: (cart. coord. in units 2 pi/alat)
               b(1) = (  1.000000  0.577350  0.000000 )
               b(2) = (  0.000000  1.154701  0.000000 )
               b(3) = (  0.000000  0.000000  1.136538 )

     PseudoPot. # 1 for C  read from file:
     ~/pseudos/C.pbe-n-kjpaw_psl.1.0.0.UPF
     MD5 check sum: Not computed, couldn't open file
     Pseudo is Projector augmented-wave + core cor, Zval =  4.0
     Generated using "atomic" code by A. Dal Corso v.5.1
     Shape of augmentation charge: PSQ
     Using radial grid of 1073 points,  4 beta functions with:
                l(1) =   0
                l(2) =   0
                l(3) =   1
                l(4) =   1
     Q(r) pseudized with 0 coefficients

     atomic species   valence    mass     pseudopotential
        C              4.00    12.01070     C ( 1.00)

     12 Sym. Ops. (no inversion) found

   Cartesian axes

     site n.     atom                  positions (alat units)
         1           C   tau(   1) = (   0.0000000   0.0000000   0.4399324  )
         2           C   tau(   2) = (   0.2500005   0.1443378   0.4399324  )
         3           C   tau(   3) = (   0.2500000   0.4330127   0.4399324  )
         4           C   tau(   4) = (   0.0000005   0.5773505   0.4399324  )
         5           C   tau(   5) = (   0.5000000   0.0000000   0.4399324  )
         6           C   tau(   6) = (   0.7500005   0.1443378   0.4399324  )
         7           C   tau(   7) = (  -0.2500000   0.4330127   0.4399324  )
         8           C   tau(   8) = (   0.5000005   0.5773505   0.4399324  )

     number of k points=     7  Gaussian smearing, width (Ry)=  0.0100
                       cart. coord. in units 2pi/alat
        k(    1) = (   0.0000000   0.0000000   0.0000000), wk =   0.0555556
        k(    2) = (   0.0000000   0.1924501   0.0000000), wk =   0.3333333
        k(    3) = (   0.0000000   0.3849002   0.0000000), wk =   0.3333333
        k(    4) = (   0.0000000  -0.5773503   0.0000000), wk =   0.1666667
        k(    5) = (   0.1666667   0.2886752   0.0000000), wk =   0.3333333
        k(    6) = (   0.1666667   0.4811253   0.0000000), wk =   0.6666667
        k(    7) = (   0.3333333   0.5773503   0.0000000), wk =   0.1111111

     Check: negative core charge=   -0.000010

     Initial potential from superposition of free atoms

     starting charge   31.99967, renormalised to   32.00000
     Starting wfcs are   32 randomized atomic wfcs
     Checking if some PAW data can be deallocated...

     Self-consistent Calculation

     iteration #  1     ecut=    40.19 Ry     beta= 0.50
     Davidson diagonalization with overlap
     ethr =  1.00E-02,  avg # of iterations =  2.6

     total energy              =    -147.43383990 Ry
     estimated scf accuracy    <       0.80720860 Ry

[...]

     total energy              =    -147.45347324 Ry
     estimated scf accuracy    <       0.00000003 Ry

     iteration #  8     ecut=    40.19 Ry     beta= 0.50
     Davidson diagonalization with overlap
     ethr =  9.70E-11,  avg # of iterations =  3.1

     End of self-consistent calculation

          k = 0.0000 0.0000 0.0000 (  2669 PWs)   bands (ev):

   -14.7944  -9.5473  -9.5473  -9.5473  -8.5017  -8.5017  -8.5016  -2.7231
    -1.6647  -1.6647  -1.6647   1.7189   1.7190   2.4572   2.4573   2.4573
     6.5639   6.5639   6.5640   7.3484

[...]

          k = 0.3333 0.5774 0.0000 (  2676 PWs)   bands (ev):

   -12.8452 -12.8452 -12.8452  -7.8634  -7.8633  -5.8150  -3.0224  -3.0224
    -3.0223  -1.6658  -1.6658  -1.6657  -0.4572  -0.4571  -0.4571   4.8071
     4.8071   9.9295   9.9295  11.1447

     the Fermi energy is     4.8071 ev

!    total energy              =    -147.45347325 Ry

     total all-electron energy =      -609.566256 Ry
     estimated scf accuracy    <          2.9E-10 Ry
     smearing contrib. (-TS)   =      -0.00062688 Ry
     internal energy E=F+TS    =    -147.45284637 Ry

     The total energy is F=E-TS. E is the sum of the following terms:
     one-electron contribution =     -67.88156898 Ry
     hartree contribution      =      48.12483577 Ry
     xc contribution           =     -37.19462049 Ry
     ewald contribution        =     -41.16958620 Ry
     one-center paw contrib.   =     -49.33190647 Ry

     convergence has been achieved in   8 iterations

     Writing output data file ./outdir/graphene.save/

     General routines

     Parallel routines

   This run was terminated on:  21:47:16   7Nov2020

   JOB DONE.