     Program PWSCF v.6.6 starts on  6Sep2020 at 12:59:36

     R & G space division:  proc/nbgrp/npool/nimage =      44
     Fft bands division:     nmany     =       1
     Reading input from 1-scf.in

     Current dimensions of program PWSCF are:
     Max number of different atomic species (ntypx) = 10
     Max number of k-points (npk) =  40000
     Max angular momentum in pseudopotentials (lmaxx) =  3
     file Se.rel-pbe-n-kjpaw_psl.0.2.UPF: wavefunction(s)  4S 4P renormalized
     file Nb.rel-pbe-spn-kjpaw_psl.1.0.0.UPF: wavefunction(s)  4S 4P 4P 4D renormalized

     Subspace diagonalization in iterative solution of the eigenvalue problem:
     a serial algorithm will be used

     Found symmetry operation: I + ( -0.0000  0.3333  0.0000)
     This is a supercell, fractional translations are disabled

     bravais-lattice index     =            4
     lattice parameter (alat)  =      19.7820  a.u.
     unit-cell volume          =   14965.4900 (a.u.)^3
     number of atoms/cell      =           27
     number of atomic types    =            2
     number of electrons       =       225.00
     number of Kohn-Sham states=          272
     kinetic-energy cutoff     =      30.0000  Ry
     charge density cutoff     =     230.0000  Ry
     convergence threshold     =      1.0E-06
     mixing beta               =       0.4000
     number of iterations used =            8  plain     mixing
     Exchange-correlation= SLA PW PBX PBC
                           (   1   4   3   4   0   0   0)
     Non magnetic calculation with spin-orbit

     celldm(1)=  19.782031  celldm(2)=   0.000000  celldm(3)=   2.232275
     celldm(4)=   0.000000  celldm(5)=   0.000000  celldm(6)=   0.000000

     crystal axes: (cart. coord. in units of alat)
               a(1) = (   1.000000   0.000000   0.000000 )
               a(2) = (  -0.500000   0.866025   0.000000 )
               a(3) = (   0.000000   0.000000   2.232275 )

     reciprocal axes: (cart. coord. in units 2 pi/alat)
               b(1) = (  1.000000  0.577350  0.000000 )
               b(2) = (  0.000000  1.154701  0.000000 )
               b(3) = (  0.000000  0.000000  0.447974 )

     PseudoPot. # 1 for Se read from file:
     ../Pseudos/Se.rel-pbe-n-kjpaw_psl.0.2.UPF
     MD5 check sum: 45c28741602d7a872c405fe9dd485dc8
     Pseudo is Projector augmented-wave + core cor, Zval =  6.0
     Generated using "atomic" code by A. Dal Corso v.5.0.2 svn rev. 9415
     Shape of augmentation charge: PSQ
     Using radial grid of 1211 points,  6 beta functions with:
                l(1) =   0
                l(2) =   0
                l(3) =   1
                l(4) =   1
                l(5) =   1
                l(6) =   1
     Q(r) pseudized with 0 coefficients

     PseudoPot. # 2 for Nb read from file:
     ../Pseudos/Nb.rel-pbe-spn-kjpaw_psl.1.0.0.UPF
     MD5 check sum: 2306cb666db741a7975d44936f4113f9
     Pseudo is Projector augmented-wave + core cor, Zval = 13.0
     Generated using "atomic" code by A. Dal Corso v.6.2.2
     Shape of augmentation charge: PSQ
     Using radial grid of 1227 points, 10 beta functions with:
                l(1) =   0
                l(2) =   0
                l(3) =   1
                l(4) =   1
                l(5) =   1
                l(6) =   1
                l(7) =   2
                l(8) =   2
                l(9) =   2
               l(10) =   2
     Q(r) pseudized with 0 coefficients

     atomic species   valence    mass     pseudopotential
        Se             6.00    78.96000     Se( 1.00)
        Nb            13.00    92.90638     Nb( 1.00)

     12 Sym. Ops. (no inversion) found

   Cartesian axes

     site n.     atom                  positions (alat units)
         1           Se  tau(   1) = (   0.0000000   0.1924503   1.2770040  )
         2           Nb  tau(   2) = (   0.0000000   0.0000000   1.1161391  )
         3           Se  tau(   3) = (   0.0000000   0.1924503   0.9552741  )
         4           Se  tau(   4) = (  -0.1666667   0.4811254   1.2770040  )
         5           Nb  tau(   5) = (  -0.1666667   0.2886751   1.1161391  )
         6           Se  tau(   6) = (  -0.1666667   0.4811254   0.9552741  )
         7           Se  tau(   7) = (  -0.3333333   0.7698005   1.2770040  )
         8           Nb  tau(   8) = (  -0.3333333   0.5773503   1.1161391  )
         9           Se  tau(   9) = (  -0.3333333   0.7698005   0.9552741  )
        10           Se  tau(  10) = (   0.3333333   0.1924503   1.2770040  )
        11           Nb  tau(  11) = (   0.3333333   0.0000000   1.1161391  )
        12           Se  tau(  12) = (   0.3333333   0.1924503   0.9552741  )
        13           Se  tau(  13) = (   0.1666667   0.4811254   1.2770040  )
        14           Nb  tau(  14) = (   0.1666667   0.2886751   1.1161391  )
        15           Se  tau(  15) = (   0.1666667   0.4811254   0.9552741  )
        16           Se  tau(  16) = (   0.0000000   0.7698005   1.2770040  )
        17           Nb  tau(  17) = (   0.0000000   0.5773503   1.1161391  )
        18           Se  tau(  18) = (   0.0000000   0.7698005   0.9552741  )
        19           Se  tau(  19) = (   0.6666667   0.1924503   1.2770040  )
        20           Nb  tau(  20) = (   0.6666667   0.0000000   1.1161391  )
        21           Se  tau(  21) = (   0.6666667   0.1924503   0.9552741  )
        22           Se  tau(  22) = (   0.5000000   0.4811254   1.2770040  )
        23           Nb  tau(  23) = (   0.5000000   0.2886751   1.1161391  )
        24           Se  tau(  24) = (   0.5000000   0.4811254   0.9552741  )
        25           Se  tau(  25) = (   0.3333333   0.7698005   1.2770040  )
        26           Nb  tau(  26) = (   0.3333333   0.5773503   1.1161391  )
        27           Se  tau(  27) = (   0.3333333   0.7698005   0.9552741  )

     number of k points=     4  Gaussian smearing, width (Ry)=  0.0500
                       cart. coord. in units 2pi/alat
        k(    1) = (   0.0000000   0.0000000   0.0000000), wk =   0.0625000
        k(    2) = (   0.0000000   0.2886751   0.0000000), wk =   0.3750000
        k(    3) = (   0.0000000  -0.5773503   0.0000000), wk =   0.1875000
        k(    4) = (   0.2500000   0.4330127   0.0000000), wk =   0.3750000

     Initial potential from superposition of free atoms

     starting charge  224.98670, renormalised to  225.00000

     negative rho (up, down):  2.613E-02 0.000E+00
     Starting wfcs are  378 randomized atomic wfcs
     Checking if some PAW data can be deallocated...

     Self-consistent Calculation

     iteration #  1     ecut=    30.00 Ry     beta= 0.40
     Davidson diagonalization with overlap
     ethr =  1.00E-02,  avg # of iterations =  2.0

     Threshold (ethr) on eigenvalues was too large:
     Diagonalizing with lowered threshold

     Davidson diagonalization with overlap
     ethr =  2.76E-04,  avg # of iterations =  2.5

     negative rho (up, down):  2.789E-02 0.000E+00

     total energy              =   -6424.80012232 Ry
     estimated scf accuracy    <       0.77753054 Ry

[...]

     iteration #  7     ecut=    30.00 Ry     beta= 0.40
     Davidson diagonalization with overlap
     c_bands:  1 eigenvalues not converged
     ethr =  9.26E-07,  avg # of iterations = 12.8

[...]

     total energy              =   -6424.91149452 Ry
     estimated scf accuracy    <       0.00000481 Ry

     iteration # 12     ecut=    30.00 Ry     beta= 0.40
     Davidson diagonalization with overlap
     ethr =  2.14E-09,  avg # of iterations =  3.0

     negative rho (up, down):  3.001E-02 0.000E+00

     End of self-consistent calculation

          k = 0.0000 0.0000 0.0000 ( 41489 PWs)   bands (ev):

   -56.6699 -56.6699 -56.6552 -56.6552 -56.6550 -56.6550 -56.6550 -56.6550
   -56.6550 -56.6550 -56.6550 -56.6550 -56.6550 -56.6550 -56.6476 -56.6476
   -56.6475 -56.6475 -34.2020 -34.2020 -34.1845 -34.1845 -34.1691 -34.1691
   -34.1689 -34.1689 -34.1689 -34.1689 -34.1689 -34.1689 -34.1689 -34.1689
   -34.1689 -34.1689 -34.1191 -34.1191 -32.1564 -32.1564 -32.1205 -32.1205
   -32.1097 -32.1097 -32.1097 -32.1097 -32.1097 -32.1097 -32.1096 -32.1096
   -32.1096 -32.1096 -32.1096 -32.1096 -32.0625 -32.0625 -32.0507 -32.0507
   -32.0414 -32.0414 -32.0233 -32.0233 -32.0232 -32.0232 -32.0232 -32.0232
   -32.0232 -32.0232 -32.0232 -32.0232 -32.0231 -32.0231 -31.9668 -31.9668
   -15.1044 -15.1044 -14.1660 -14.1660 -14.1660 -14.1660 -14.1659 -14.1659
   -14.1659 -14.1659 -14.1658 -14.1658 -14.1658 -14.1658 -14.1621 -14.1621
   -13.7341 -13.7341 -13.7340 -13.7340 -13.7340 -13.7340 -13.7339 -13.7339
   -13.7338 -13.7338 -13.7338 -13.7338 -13.6224 -13.6224 -13.5838 -13.5838
   -13.4636 -13.4636 -13.4619 -13.4619  -6.3889  -6.3889  -5.9713  -5.9713
    -5.9181  -5.9181  -5.9181  -5.9181  -5.9181  -5.9181  -5.9179  -5.9179
    -5.9179  -5.9179  -5.9179  -5.9179  -5.8368  -5.8368  -5.5545  -5.5545
    -5.3867  -5.3867  -5.0881  -5.0881  -5.0880  -5.0880  -5.0880  -5.0880
    -5.0874  -5.0874  -5.0873  -5.0873  -5.0873  -5.0873  -5.0546  -5.0546
    -4.9756  -4.9756  -4.9756  -4.9756  -4.9756  -4.9756  -4.9752  -4.9752
    -4.9752  -4.9752  -4.9751  -4.9751  -4.9651  -4.9651  -4.7001  -4.7001
    -4.6549  -4.6549  -4.1248  -4.1248  -3.9258  -3.9258  -3.6628  -3.6628
    -3.6628  -3.6628  -3.6628  -3.6628  -3.6627  -3.6627  -3.6627  -3.6627
    -3.6627  -3.6627  -3.4792  -3.4792  -3.3799  -3.3799  -3.2373  -3.2373
    -3.2193  -3.2193  -2.9372  -2.9372  -2.9036  -2.9036  -2.9036  -2.9036
    -2.9036  -2.9036  -2.9035  -2.9035  -2.9035  -2.9035  -2.9035  -2.9035
    -2.5699  -2.5699  -2.5472  -2.5472  -2.5472  -2.5472  -2.5472  -2.5472
    -2.5471  -2.5471  -2.5471  -2.5471  -2.5471  -2.5471  -2.3596  -2.3596
    -1.9049  -1.9049  -1.9048  -1.9048  -1.9048  -1.9048  -1.9048  -1.9048
    -1.9048  -1.9048  -1.9047  -1.9047  -1.1146  -1.1146  -0.9754  -0.9754
    -0.9607  -0.9607   0.3283   0.3283   0.3451   0.3451   0.8544   0.8544
     0.8544   0.8544   0.8544   0.8544   0.8544   0.8544   0.8544   0.8544
     0.8544   0.8544   0.9892   0.9892   0.9893   0.9893   0.9893   0.9893
     0.9893   0.9893   0.9894   0.9894   0.9894   0.9894   1.1995   1.1996
     1.3953   1.3953   1.4006   1.4006   1.5623   1.5623   1.7237   1.7238

[...]

          k = 0.2500 0.4330 0.0000 ( 41541 PWs)   bands (ev):

   -56.6667 -56.6667 -56.6625 -56.6625 -56.6625 -56.6625 -56.6535 -56.6535
   -56.6535 -56.6535 -56.6507 -56.6507 -56.6507 -56.6507 -56.6493 -56.6493
   -56.6489 -56.6489 -34.1959 -34.1909 -34.1905 -34.1904 -34.1838 -34.1837
   -34.1833 -34.1796 -34.1796 -34.1775 -34.1706 -34.1705 -34.1477 -34.1477
   -34.1453 -34.1453 -34.1325 -34.1317 -32.1532 -32.1495 -32.1494 -32.1399
   -32.1397 -32.1397 -32.1325 -32.1204 -32.1203 -32.1168 -32.1074 -32.1073
   -32.0629 -32.0629 -32.0625 -32.0625 -32.0476 -32.0470 -32.0464 -32.0419
   -32.0417 -32.0383 -32.0353 -32.0352 -32.0349 -32.0349 -32.0295 -32.0295
   -32.0290 -32.0290 -32.0179 -32.0179 -32.0149 -32.0148 -31.9960 -31.9942
   -14.8866 -14.8852 -14.6261 -14.6260 -14.6219 -14.6218 -14.0617 -14.0616
   -14.0471 -14.0470 -14.0291 -14.0290 -13.9415 -13.9415 -13.9412 -13.9411
   -13.8140 -13.7945 -13.7944 -13.7858 -13.7803 -13.7802 -13.7157 -13.6886
   -13.6721 -13.6720 -13.6708 -13.6707 -13.5638 -13.5637 -13.5630 -13.5629
   -13.5596 -13.5580 -13.5184 -13.5170  -6.3925  -6.3924  -6.3777  -6.3777
    -6.1925  -6.1562  -6.1000  -6.0983  -5.8780  -5.8480  -5.8045  -5.8044
    -5.8031  -5.8031  -5.7951  -5.7951  -5.7885  -5.7885  -5.7737  -5.6699
    -5.6208  -5.6207  -5.6066  -5.5638  -5.5638  -5.4752  -5.1841  -5.1840
    -5.0621  -5.0621  -4.9540  -4.9539  -4.9464  -4.9463  -4.9230  -4.9230
    -4.9152  -4.9151  -4.8721  -4.8551  -4.8144  -4.8014  -4.7037  -4.7037
    -4.7018  -4.7018  -4.2328  -4.1638  -4.1638  -4.1378  -4.1054  -4.1008
    -4.0993  -4.0813  -4.0813  -4.0769  -4.0769  -4.0750  -4.0750  -4.0247
    -4.0247  -4.0156  -3.9917  -3.9651  -3.9651  -3.9589  -3.6381  -3.6139
    -3.6059  -3.5746  -3.4877  -3.4877  -3.4240  -3.4239  -3.3968  -3.3968
    -3.3317  -3.3317  -3.2165  -3.1904  -3.0528  -3.0527  -3.0495  -3.0495
    -3.0358  -3.0356  -3.0356  -3.0275  -3.0157  -3.0104  -3.0104  -2.9058
    -2.9013  -2.8458  -2.7776  -2.7776  -2.7334  -2.7334  -2.6862  -2.6862
    -2.5973  -2.5972  -2.4163  -2.4162  -2.3419  -2.2952  -2.2952  -2.2144
    -1.7378  -1.7377  -1.6666  -1.6666  -1.6333  -1.6332  -1.5694  -1.5693
    -1.5391  -1.5145  -1.5144  -1.4910  -1.4910  -1.4370  -1.4196  -1.3183
    -1.1903  -1.1878   0.7209   0.7209   0.7282   0.7282   0.7502   0.7502
     0.7563   0.7687   0.7687   0.7843   0.8020   0.8063   0.8918   0.8918
     0.9108   0.9185   0.9185   0.9464   0.9614   0.9981   1.0163   1.0163
     1.0280   1.0280   1.0353   1.0353   1.1161   1.1161   1.1333   1.1333
     1.1479   1.1479   1.1975   1.2418   1.2529   1.2530   1.2932   1.3246

     the Fermi energy is    -1.5215 ev

!    total energy              =   -6424.91149419 Ry

     total all-electron energy =   -156259.009306 Ry
     estimated scf accuracy    <       0.00000095 Ry
     smearing contrib. (-TS)   =      -0.25355673 Ry
     internal energy E=F+TS    =   -6424.65793745 Ry

     The total energy is F=E-TS. E is the sum of the following terms:
     one-electron contribution =   -9295.62280148 Ry
     hartree contribution      =    4665.71787384 Ry
     xc contribution           =    -410.35754885 Ry
     ewald contribution        =    3514.11684541 Ry
     one-center paw contrib.   =   -4898.51230638 Ry

     convergence has been achieved in  12 iterations

     Writing output data file ./outdir/nbse2.save/

     General routines

     Parallel routines

   This run was terminated on:  13:13:17   6Sep2020

   JOB DONE.